StringID Type x y demand ReadyTime DueDate ServiceTime
D0 d 35 35.0 0.0 0.0 230.0 0.0
Dt d 35 35.0 0.0 0.0 230.0 0.0
C1 c3 41 49.0 10.0 36.0 46.0 10.0
C2 c3 35 17.0 7.0 0.0 202.0 10.0
C3 c1 55 45.0 13.0 28.0 38.0 10.0
C4 c1 55 20.0 19.0 107.0 117.0 10.0
C5 c1 15 30.0 26.0 0.0 199.0 10.0
C6 c1 25 30.0 3.0 95.0 105.0 10.0
C7 c2 20 50.0 5.0 88.0 98.0 10.0
C8 c2 10 43.0 9.0 27.0 37.0 10.0
C9 c2 55 60.0 16.0 0.0 187.0 10.0
C10 c1 30 60.0 16.0 0.0 194.0 10.0
C11 c1 20 65.0 12.0 61.0 71.0 10.0
C12 c2 50 35.0 19.0 177.0 187.0 10.0
C13 c1 30 25.0 23.0 0.0 208.0 10.0
C14 c3 15 10.0 20.0 157.0 167.0 10.0
C15 c2 30 5.0 8.0 114.0 124.0 10.0
C16 c2 10 20.0 19.0 71.0 81.0 10.0
C17 c1 5 30.0 2.0 73.0 83.0 10.0
C18 c2 20 40.0 12.0 0.0 204.0 10.0
C19 c3 15 60.0 17.0 48.0 58.0 10.0
C20 c1 45 65.0 9.0 159.0 169.0 10.0
C21 c2 45 20.0 11.0 0.0 201.0 10.0
C22 c2 45 10.0 18.0 0.0 193.0 10.0
C23 c3 55 5.0 29.0 119.0 129.0 10.0
C24 c1 65 35.0 3.0 0.0 190.0 10.0
C25 c1 65 20.0 6.0 0.0 186.0 10.0
C26 c1 45 30.0 17.0 174.0 184.0 10.0
C27 c1 35 40.0 16.0 173.0 183.0 10.0
C28 c2 41 37.0 16.0 0.0 213.0 10.0
C29 c1 64 42.0 9.0 117.0 127.0 10.0
C30 c2 40 60.0 21.0 163.0 173.0 10.0
C31 c2 31 52.0 27.0 25.0 35.0 10.0
C32 c1 35 69.0 23.0 55.0 65.0 10.0
C33 c2 53 52.0 11.0 54.0 64.0 10.0
C34 c3 65 55.0 14.0 0.0 183.0 10.0
C35 c3 63 65.0 8.0 125.0 135.0 10.0
C36 c2 2 60.0 5.0 78.0 88.0 10.0
C37 c2 20 20.0 8.0 188.0 198.0 10.0
C38 c1 5 5.0 16.0 63.0 73.0 10.0
C39 c3 60 12.0 31.0 50.0 60.0 10.0
C40 c3 40 25.0 9.0 34.0 44.0 10.0
C41 c3 42 7.0 5.0 181.0 191.0 10.0
C42 c1 24 12.0 5.0 147.0 157.0 10.0
C43 c3 23 3.0 7.0 43.0 53.0 10.0
C44 c3 11 14.0 18.0 171.0 181.0 10.0
C45 c1 6 38.0 16.0 125.0 135.0 10.0
C46 c3 2 48.0 1.0 50.0 60.0 10.0
C47 c1 8 56.0 27.0 0.0 185.0 10.0
C48 c1 13 52.0 36.0 147.0 157.0 10.0
C49 c3 6 68.0 30.0 152.0 162.0 10.0
C50 c1 47 47.0 13.0 118.0 128.0 10.0
C51 c2 49 58.0 10.0 178.0 188.0 10.0
C52 c3 27 43.0 9.0 111.0 121.0 10.0
C53 c3 37 31.0 14.0 0.0 215.0 10.0
C54 c1 57 29.0 18.0 88.0 98.0 10.0
C55 c2 63 23.0 2.0 0.0 189.0 10.0
C56 c3 53 12.0 6.0 58.0 68.0 10.0
C57 c2 32 12.0 7.0 186.0 196.0 10.0
C58 c3 36 26.0 18.0 112.0 122.0 10.0
C59 c3 21 24.0 28.0 101.0 111.0 10.0
C60 c3 17 34.0 3.0 0.0 201.0 10.0
C61 c3 12 24.0 13.0 29.0 39.0 10.0
C62 c3 24 58.0 19.0 0.0 194.0 10.0
C63 c3 27 69.0 10.0 132.0 142.0 10.0
C64 c2 15 77.0 9.0 111.0 121.0 10.0
C65 c3 62 77.0 20.0 68.0 78.0 10.0
C66 c2 49 73.0 25.0 66.0 76.0 10.0
C67 c1 67 5.0 25.0 0.0 176.0 10.0
C68 c1 56 39.0 36.0 57.0 67.0 10.0
C69 c2 37 47.0 6.0 151.0 161.0 10.0
C70 c2 37 56.0 5.0 49.0 59.0 10.0
C71 c3 57 68.0 15.0 117.0 127.0 10.0
C72 c3 47 16.0 25.0 111.0 121.0 10.0
C73 c3 44 17.0 9.0 136.0 146.0 10.0
C74 c3 46 13.0 8.0 27.0 37.0 10.0
C75 c2 49 11.0 18.0 0.0 192.0 10.0
C76 c1 49 42.0 13.0 183.0 193.0 10.0
C77 c3 53 43.0 14.0 150.0 160.0 10.0
C78 c1 61 52.0 3.0 94.0 104.0 10.0
C79 c1 57 48.0 23.0 90.0 100.0 10.0
C80 c2 56 37.0 6.0 108.0 118.0 10.0
C81 c1 55 54.0 26.0 0.0 192.0 10.0
C82 c1 15 47.0 16.0 169.0 179.0 10.0
C83 c2 14 37.0 11.0 144.0 154.0 10.0
C84 c2 11 31.0 7.0 96.0 106.0 10.0
C85 c3 16 22.0 41.0 93.0 103.0 10.0
C86 c3 4 18.0 35.0 99.0 109.0 10.0
C87 c2 28 18.0 26.0 166.0 176.0 10.0
C88 c2 26 52.0 9.0 166.0 176.0 10.0
C89 c1 26 35.0 15.0 45.0 55.0 10.0
C90 c3 31 67.0 3.0 69.0 79.0 10.0
C91 c3 15 19.0 1.0 87.0 97.0 10.0
C92 c1 22 22.0 2.0 124.0 134.0 10.0
C93 c1 18 24.0 22.0 0.0 199.0 10.0
C94 c2 26 27.0 27.0 0.0 207.0 10.0
C95 c3 25 24.0 20.0 140.0 150.0 10.0
C96 c1 22 27.0 11.0 28.0 38.0 10.0
C97 c3 25 21.0 12.0 0.0 202.0 10.0
C98 c3 19 21.0 10.0 0.0 198.0 10.0
C99 c3 20 26.0 9.0 138.0 148.0 10.0
C100 c3 18 18.0 17.0 0.0 195.0 10.0
P0 p 35 23.0 0.0 0.0 230.0 5.0
P1 p 44 23.0 0.0 0.0 230.0 5.0
P2 p 21 40.0 0.0 0.0 230.0 5.0
P3 p 54 48.0 0.0 0.0 230.0 5.0
P4 p 18 43.0 0.0 0.0 230.0 5.0
0 0 0 1.0 0.0 nan nan nan
1 0 0 0.0 0.0 nan nan nan
0 0 0 0.0 0.0 nan nan nan
0 0 0 0.0 0.0 nan nan nan
0 0 0 0.0 0.0 nan nan nan
0 0 0 0.0 0.0 nan nan nan
0 0 0 0.0 1.0 nan nan nan
0 0 0 0.0 1.0 nan nan nan
0 0 0 1.0 0.0 nan nan nan
0 0 0 0.0 0.0 nan nan nan
0 0 0 0.0 0.0 nan nan nan
0 1 0 0.0 0.0 nan nan nan
0 0 0 0.0 0.0 nan nan nan
1 0 0 0.0 0.0 nan nan nan
1 0 0 0.0 0.0 nan nan nan
0 0 1 0.0 0.0 nan nan nan
0 0 0 0.0 0.0 nan nan nan
0 0 1 0.0 0.0 nan nan nan
0 0 0 0.0 1.0 nan nan nan
0 0 0 0.0 0.0 nan nan nan
0 1 0 0.0 0.0 nan nan nan
0 1 0 0.0 0.0 nan nan nan
0 1 0 0.0 0.0 nan nan nan
0 0 0 0.0 0.0 nan nan nan
0 0 0 0.0 0.0 nan nan nan
0 0 0 0.0 0.0 nan nan nan
0 0 0 0.0 0.0 nan nan nan
0 1 0 0.0 0.0 nan nan nan
0 0 0 0.0 0.0 nan nan nan
0 0 0 1.0 0.0 nan nan nan
0 0 1 0.0 0.0 nan nan nan
0 0 0 0.0 0.0 nan nan nan
0 0 0 1.0 0.0 nan nan nan
0 0 0 1.0 0.0 nan nan nan
0 0 0 1.0 0.0 nan nan nan
0 0 0 0.0 1.0 nan nan nan
1 0 0 0.0 0.0 nan nan nan
0 0 0 0.0 0.0 nan nan nan
0 1 0 0.0 0.0 nan nan nan
0 1 0 0.0 0.0 nan nan nan
0 1 0 0.0 0.0 nan nan nan
0 0 0 0.0 0.0 nan nan nan
1 0 0 0.0 0.0 nan nan nan
1 0 0 0.0 0.0 nan nan nan
0 0 0 0.0 0.0 nan nan nan
0 0 0 0.0 1.0 nan nan nan
0 0 0 0.0 0.0 nan nan nan
0 0 0 0.0 0.0 nan nan nan
0 0 0 0.0 1.0 nan nan nan
0 0 0 0.0 0.0 nan nan nan
0 0 0 1.0 0.0 nan nan nan
0 0 1 0.0 0.0 nan nan nan
1 0 0 0.0 0.0 nan nan nan
0 0 0 0.0 0.0 nan nan nan
0 1 0 0.0 0.0 nan nan nan
0 1 0 0.0 0.0 nan nan nan
1 0 0 0.0 0.0 nan nan nan
1 0 0 0.0 0.0 nan nan nan
1 0 0 0.0 0.0 nan nan nan
0 0 1 0.0 0.0 nan nan nan
0 0 1 0.0 0.0 nan nan nan
0 0 0 0.0 1.0 nan nan nan
0 0 0 0.0 1.0 nan nan nan
0 0 0 0.0 1.0 nan nan nan
0 0 0 1.0 0.0 nan nan nan
0 0 0 1.0 0.0 nan nan nan
0 0 0 0.0 0.0 nan nan nan
0 0 0 0.0 0.0 nan nan nan
0 0 0 1.0 0.0 nan nan nan
0 0 0 1.0 0.0 nan nan nan
0 0 0 1.0 0.0 nan nan nan
0 1 0 0.0 0.0 nan nan nan
0 1 0 0.0 0.0 nan nan nan
0 1 0 0.0 0.0 nan nan nan
0 1 0 0.0 0.0 nan nan nan
0 0 0 0.0 0.0 nan nan nan
0 0 0 1.0 0.0 nan nan nan
0 0 0 0.0 0.0 nan nan nan
0 0 0 0.0 0.0 nan nan nan
0 0 0 1.0 0.0 nan nan nan
0 0 0 0.0 0.0 nan nan nan
0 0 0 0.0 0.0 nan nan nan
0 0 0 0.0 1.0 nan nan nan
0 0 1 0.0 0.0 nan nan nan
0 0 1 0.0 0.0 nan nan nan
0 0 1 0.0 0.0 nan nan nan
1 0 0 0.0 0.0 nan nan nan
0 0 0 0.0 1.0 nan nan nan
0 0 0 0.0 0.0 nan nan nan
0 0 0 0.0 1.0 nan nan nan
1 0 0 0.0 0.0 nan nan nan
0 0 0 0.0 0.0 nan nan nan
0 0 0 0.0 0.0 nan nan nan
1 0 0 0.0 0.0 nan nan nan
1 0 0 0.0 0.0 nan nan nan
0 0 0 0.0 0.0 nan nan nan
1 0 0 0.0 0.0 nan nan nan
1 0 0 0.0 0.0 nan nan nan
0 0 1 0.0 0.0 nan nan nan
1 0 0 0.0 0.0 nan nan nan
param CV := 200.0 nan nan nan nan
param V := 1.0 nan nan nan nan
